NAME : rnd16_50.tsp.tsp.opt.tour
TYPE : TOUR
DIMENSION : 50
TOUR_SECTION
1
47
39
28
44
33
37
46
49
10
30
27
25
14
5
4
18
22
38
36
31
7
20
11
41
13
17
24
35
6
43
40
29
34
50
42
48
15
16
2
8
23
19
45
21
32
3
26
12
9
-1